param set_len = 20;
param target_sum = 112403;
param values := [1] 23284 [2] 22498 [3] 599 [4] 18338 [5] 3045 [6] 12667 [7] 1182 [8] 28057 [9] 23189 [10] 15387 [11] 28415 [12] 24942 [13] 23675 [14] 21231 [15] 7302 [16] 1071 [17] 1243 [18] 17968 [19] 13748 [20] 10779 ;
